Set parameter Username
Academic license - for non-commercial use only - expires 2024-02-22
Warning: Gurobi version mismatch between Python 9.5.0 and C library 9.5.2
Set parameter TimeLimit to value 3600
Set parameter MIPGap to value 1e-06
Set parameter Threads to value 1
Gurobi Optimizer version 9.5.2 build v9.5.2rc0 (linux64)
Thread count: 4 physical cores, 4 logical processors, using up to 1 threads
Optimize a model with 260 rows, 312 columns and 674 nonzeros
Model fingerprint: 0xb9c0195d
Variable types: 208 continuous, 104 integer (104 binary)
Coefficient statistics:
  Matrix range     [1e+00, 1e+02]
  Objective range  [5e-01, 2e+03]
  Bounds range     [1e+00, 1e+00]
  RHS range        [2e+01, 2e+02]
Found heuristic solution: objective 53336.500000
Presolve removed 7 rows and 7 columns
Presolve time: 0.00s
Presolved: 253 rows, 305 columns, 658 nonzeros
Variable types: 203 continuous, 102 integer (102 binary)

Root relaxation: objective 2.347766e+04, 214 iterations, 0.00 seconds (0.00 work units)

    Nodes    |    Current Node    |     Objective Bounds      |     Work
 Expl Unexpl |  Obj  Depth IntInf | Incumbent    BestBd   Gap | It/Node Time

     0     0 23477.6616    0   69 53336.5000 23477.6616  56.0%     -    0s
H    0     0                    34193.000000 23477.6616  31.3%     -    0s
H    0     0                    32319.000000 23477.6616  27.4%     -    0s
     0     0 25108.7511    0   68 32319.0000 25108.7511  22.3%     -    0s
H    0     0                    31447.000000 25108.7511  20.2%     -    0s
     0     0 25135.1503    0   68 31447.0000 25135.1503  20.1%     -    0s
     0     0 25710.8683    0   66 31447.0000 25710.8683  18.2%     -    0s
H    0     0                    29720.000000 25710.8683  13.5%     -    0s
     0     0 25789.9722    0   55 29720.0000 25789.9722  13.2%     -    0s
     0     0 25793.5354    0   52 29720.0000 25793.5354  13.2%     -    0s
     0     0 25794.2204    0   54 29720.0000 25794.2204  13.2%     -    0s
     0     0 25891.4024    0   54 29720.0000 25891.4024  12.9%     -    0s
H    0     0                    28827.500000 25891.4024  10.2%     -    0s
     0     0 25910.9549    0   56 28827.5000 25910.9549  10.1%     -    0s
     0     0 25913.2832    0   54 28827.5000 25913.2832  10.1%     -    0s
     0     0 25913.4963    0   55 28827.5000 25913.4963  10.1%     -    0s
     0     0 25947.8447    0   46 28827.5000 25947.8447  10.0%     -    0s
H    0     0                    26905.500000 25947.8447  3.56%     -    0s
     0     0 25968.0254    0   49 26905.5000 25968.0254  3.48%     -    0s
     0     0 25968.4957    0   47 26905.5000 25968.4957  3.48%     -    0s
     0     0 25980.3507    0   45 26905.5000 25980.3507  3.44%     -    0s
     0     0 25993.8561    0   48 26905.5000 25993.8561  3.39%     -    0s
     0     0 25994.9386    0   48 26905.5000 25994.9386  3.38%     -    0s
     0     0 26006.8046    0   45 26905.5000 26006.8046  3.34%     -    0s
     0     0 26010.4823    0   46 26905.5000 26010.4823  3.33%     -    0s
     0     0 26012.6957    0   47 26905.5000 26012.6957  3.32%     -    0s
     0     0 26040.2576    0   47 26905.5000 26040.2576  3.22%     -    0s
     0     0 26042.0341    0   45 26905.5000 26042.0341  3.21%     -    0s
     0     0 26042.0341    0   45 26905.5000 26042.0341  3.21%     -    0s
     0     2 26042.1333    0   45 26905.5000 26042.1333  3.21%     -    0s
H   27    27                    26605.500000 26043.0728  2.11%   2.9    0s
H   32    31                    26588.522472 26043.0728  2.05%   3.4    0s
*   33    32              32    26573.500000 26043.0728  2.00%   3.4    0s
H  191    72                    26498.000000 26072.2141  1.61%   5.6    0s
*  214    93              28    26488.000000 26072.2141  1.57%   5.5    0s
*  222    92              28    26480.000000 26072.2141  1.54%   5.4    0s
H  636   225                    26451.000000 26117.5667  1.26%   5.5    0s
H 1177   315                    26421.000000 26170.6607  0.95%   5.7    0s
H 1200   320                    26416.000000 26171.5435  0.93%   5.7    0s
H 1255   313                    26414.000000 26175.1136  0.90%   5.7    0s
H 2520   310                    26401.000000 26284.2375  0.44%   6.2    0s

Cutting planes:
  Gomory: 1
  Cover: 2
  Implied bound: 2
  MIR: 44
  Flow cover: 99
  Flow path: 12
  Inf proof: 2

Explored 3538 nodes (22651 simplex iterations) in 1.09 seconds (0.53 work units)
Thread count was 1 (of 4 available processors)

Solution count 10: 26401 26414 26416 ... 26605.5

Optimal solution found (tolerance 1.00e-06)
Best objective 2.640100000000e+04, best bound 2.640100000000e+04, gap 0.0000%
Obj: 26401
